1
1000
120
499 1
499 1
480 1
476 1
473 1
471 1
470 1
467 1
463 1
457 1
447 1
444 1
442 1
439 1
439 1
437 1
434 1
432 1
419 1
418 1
418 1
415 1
412 1
412 1
411 1
410 1
406 1
405 1
403 1
397 1
396 1
393 1
393 1
390 1
381 1
374 1
372 1
369 1
366 1
364 1
354 1
354 1
354 1
351 1
351 1
348 1
346 1
336 1
329 1
328 1
324 1
324 1
323 1
321 1
320 1
317 1
316 1
316 1
306 1
304 1
304 1
301 1
301 1
301 1
300 1
299 1
299 1
298 1
296 1
295 1
294 1
290 1
289 1
288 1
287 1
287 1
285 1
285 1
282 1
280 1
279 1
278 1
278 1
277 1
277 1
277 1
276 1
276 1
274 1
274 1
273 1
272 1
271 1
269 1
268 1
266 1
265 1
265 1
265 1
262 1
261 1
261 1
257 1
257 1
256 1
255 1
255 1
255 1
254 1
254 1
254 1
254 1
253 1
252 1
252 1
251 1
251 1
250 1
250 1
250 1
